(declare-fun key_ack!94 () (_ BitVec 32))
(declare-fun limit_ack!93 () (_ BitVec 64))
(declare-fun epsabs_ack!92 () (_ BitVec 64))
(assert (bvslt key_ack!94 #x00000001))
(assert (not (bvult #x00000000000003e8 limit_ack!93)))
(assert (not (fp.leq ((_ to_fp 11 53) epsabs_ack!92)
             ((_ to_fp 11 53) #x0000000000000000))))

(check-sat)
(exit)
